0 0 0 0
0 1 0 0
0 2 0 0
0 3 0 0
0 4 0 5
0 5 0 10
0 6 0 11
0 7 0 8
0 8 0 5
0 9 0 37
0 10 0 8
0 11 0 47
0 12 0 12
0 13 0 11
0 14 0 11
0 15 0 11
0 16 0 14
0 17 0 15
0 18 0 20
0 19 0 33
0 20 0 14
0 21 0 42
0 22 0 20
0 23 0 24
0 24 0 30
0 25 0 16
0 26 0 12
0 27 0 6
0 28 0 12
0 29 0 17
0 30 0 26
0 31 0 32
0 32 0 42
0 33 0 17
0 34 0 26
0 35 0 26
0 36 0 49
0 37 0 18
0 38 0 5
0 39 0 24
0 40 0 52
0 41 0 29
0 42 0 31
0 43 0 55
0 44 0 28
0 45 0 66
0 46 0 47
0 47 0 65
0 48 0 43
0 49 0 13
0 50 0 49
0 51 0 29
0 52 0 68
0 53 0 57
0 54 0 13
0 55 0 30
0 56 0 37
0 57 0 52
0 58 0 77
0 59 0 18
0 60 0 67
0 61 0 58
0 62 0 28
0 63 0 56
0 64 0 59
0 65 0 47
0 66 0 98
0 67 0 86
0 68 0 86
0 69 0 38
0 70 0 34
0 71 0 43
0 72 0 20
0 73 0 32
0 74 0 56
0 75 0 52
0 76 0 67
0 77 0 89
0 78 0 87
0 79 0 69
0 80 0 34
0 81 0 78
0 82 0 42
0 83 0 58
0 84 0 91
0 85 0 59
0 86 0 80
0 87 0 72
0 88 0 71
0 89 0 68
0 90 0 83
0 91 0 73
0 92 0 55
0 93 0 71
0 94 0 81
0 95 0 91
0 96 0 68
0 97 0 90
0 98 0 89
0 99 0 39
0 100 0 74
0 101 0 93
0 102 0 81
0 103 0 98
0 104 0 74
0 105 0 91
0 106 0 77
0 107 0 98
0 108 0 94
0 109 0 91
0 110 0 87
0 111 0 104
0 112 0 82
0 113 0 108
0 114 0 94
0 115 0 104
0 116 0 93
0 117 0 104
0 118 0 110
0 119 0 106
0 120 0 111
0 121 0 113
